% 
% Converted by convert_jobshop2.pl
% 
% original file (la11) from Google or-tools SVN repository
%   or-tools-read-only/data/jobshop/la11
%
%
% This data file is to be used with either of these two MiniZinc models:
%    http://www.hakank.org/minizinc/jobshop.mzn
%    http://www.hakank.org/minizinc/jobshop2.mzn
%


 
% +++++++++++++++++++++++++++++
% instance la11
% +++++++++++++++++++++++++++++
% Lawrence 20x5 instance (Table 5, instance 1); also called (seth1) or H1

num_machines = 20;
num_jobs = 5;
max_time = 99999; 

%
% The times for each job.
%
job_times = array2d(1..num_machines, 1..num_jobs,
[
34,21,53,55,95,
21,52,71,16,26,
12,42,31,98,39,
66,77,79,55,77,
83,37,34,19,64,
79,43,92,62,54,
93,77,87,87,69,
83,24,41,38,60,
25,49,44,98,17,
96,75,43,77,79,
95,76,7,28,35,
10,95,61,9,35,
91,59,59,46,16,
27,52,43,28,50,
9,87,41,39,45,
54,20,43,14,71,
33,28,26,78,37,
89,33,8,66,42,
84,69,94,74,27,
81,45,78,69,96,
]);


%
% The order each job must be done.
%
job_order = array2d(1..num_machines, 1..num_jobs,
[
2,1,0,3,4,
0,3,1,4,2,
0,1,2,4,3,
2,3,4,0,1,
0,4,3,1,2,
4,2,0,3,1,
0,4,2,1,3,
4,3,1,2,0,
4,1,0,2,3,
0,1,2,4,3,
0,3,1,4,2,
4,2,0,1,3,
1,2,4,0,3,
2,1,4,0,3,
4,0,3,2,1,
1,0,4,3,2,
4,1,3,0,2,
1,0,2,3,4,
4,0,2,1,3,
4,2,1,3,0,
]);
